
;this file is automatically generated: Wed Feb 26 14:38:42 CST 2020

;declarations generated

(declare-fun oclExcludes ( Int Int) Bool)
(declare-fun Cardinality ( Int) Int)
(declare-fun obj_a9a4c08f_c540_444d_ad89_e1d13858a01d ( Int) Int)
(declare-fun type_b3742518_c54e_4606_8cbf_bcb1a92705cf_Class11 ( Int) Bool)
(declare-fun type_b3742518_c54e_4606_8cbf_bcb1a92705cf_Class13 ( Int) Bool)
(declare-fun oclSelect ( Int Bool) Int)
(declare-fun type_b3742518_c54e_4606_8cbf_bcb1a92705cf_Class5 ( Int) Bool)
(declare-fun Enum0 ( Int) Int)
(declare-fun Enum1 ( Int) Int)
(declare-fun class5_Class5BoolAttr1 ( Int) Bool)
(declare-fun class5_Class5BoolAttr0 ( Int) Bool)
(declare-fun container_ ( Int) Int)
(declare-fun class5_Class5IntAttr3 ( Int) Int)
(declare-fun oclIncludes ( Int Int) Bool)
(declare-fun class5_Class5IntAttr2 ( Int) Int)
(declare-fun ObjAt ( Int Int) Int)

;formula(s) generated
(assert (! (forall ((v Int)) (=> (and (and ( type_b3742518_c54e_4606_8cbf_bcb1a92705cf_Class5 v )  ( type_b3742518_c54e_4606_8cbf_bcb1a92705cf_Class11 v ) ) ( type_b3742518_c54e_4606_8cbf_bcb1a92705cf_Class13 v ) ) (not ( class5_Class5BoolAttr1 ( obj_a9a4c08f_c540_444d_ad89_e1d13858a01d v )  )  ))):named l0))
(assert (! (or (forall ((v Int)) (=> (and (and ( type_b3742518_c54e_4606_8cbf_bcb1a92705cf_Class5 v )  ( type_b3742518_c54e_4606_8cbf_bcb1a92705cf_Class11 v ) ) ( type_b3742518_c54e_4606_8cbf_bcb1a92705cf_Class13 v ) ) ( class5_Class5BoolAttr0 ( obj_a9a4c08f_c540_444d_ad89_e1d13858a01d v )  ) )) (forall ((v Int)) (=> (and (and ( type_b3742518_c54e_4606_8cbf_bcb1a92705cf_Class5 v )  ( type_b3742518_c54e_4606_8cbf_bcb1a92705cf_Class11 v ) ) ( type_b3742518_c54e_4606_8cbf_bcb1a92705cf_Class13 v ) ) ( class5_Class5BoolAttr1 ( obj_a9a4c08f_c540_444d_ad89_e1d13858a01d v )  ) ))):named l1))
(assert (! (or (forall ((v Int)) (=> (and (and ( type_b3742518_c54e_4606_8cbf_bcb1a92705cf_Class5 v )  ( type_b3742518_c54e_4606_8cbf_bcb1a92705cf_Class11 v ) ) ( type_b3742518_c54e_4606_8cbf_bcb1a92705cf_Class13 v ) ) (or ( class5_Class5BoolAttr1 ( obj_a9a4c08f_c540_444d_ad89_e1d13858a01d v )  )  (or (forall ((c5_2 Int)(c5_1 Int)) (=> (and (and (and ( type_b3742518_c54e_4606_8cbf_bcb1a92705cf_Class5 c5_1 )  ( type_b3742518_c54e_4606_8cbf_bcb1a92705cf_Class11 c5_1 ) ) ( type_b3742518_c54e_4606_8cbf_bcb1a92705cf_Class13 c5_1 ) ) (and (and ( type_b3742518_c54e_4606_8cbf_bcb1a92705cf_Class5 c5_2 )  ( type_b3742518_c54e_4606_8cbf_bcb1a92705cf_Class11 c5_2 ) ) ( type_b3742518_c54e_4606_8cbf_bcb1a92705cf_Class13 c5_2 ) )) (< ( class5_Class5IntAttr2 ( obj_a9a4c08f_c540_444d_ad89_e1d13858a01d c5_1 )  )  ( class5_Class5IntAttr3 ( obj_a9a4c08f_c540_444d_ad89_e1d13858a01d c5_2 )  ) ))) (forall ((v Int)) (=> (and (and ( type_b3742518_c54e_4606_8cbf_bcb1a92705cf_Class5 v )  ( type_b3742518_c54e_4606_8cbf_bcb1a92705cf_Class11 v ) ) ( type_b3742518_c54e_4606_8cbf_bcb1a92705cf_Class13 v ) ) (< ( class5_Class5IntAttr2 ( obj_a9a4c08f_c540_444d_ad89_e1d13858a01d v )  )  18))))))) (forall ((v Int)) (=> (and (and ( type_b3742518_c54e_4606_8cbf_bcb1a92705cf_Class5 v )  ( type_b3742518_c54e_4606_8cbf_bcb1a92705cf_Class11 v ) ) ( type_b3742518_c54e_4606_8cbf_bcb1a92705cf_Class13 v ) ) ( class5_Class5BoolAttr0 ( obj_a9a4c08f_c540_444d_ad89_e1d13858a01d v )  ) ))):named l2))
(assert (exists ((o Int)) (and (and ( type_b3742518_c54e_4606_8cbf_bcb1a92705cf_Class5 ( obj_a9a4c08f_c540_444d_ad89_e1d13858a01d o )  )  ( type_b3742518_c54e_4606_8cbf_bcb1a92705cf_Class11 ( obj_a9a4c08f_c540_444d_ad89_e1d13858a01d o )  ) ) ( type_b3742518_c54e_4606_8cbf_bcb1a92705cf_Class13 ( obj_a9a4c08f_c540_444d_ad89_e1d13858a01d o )  ) )))

 ;end of formula 